9181
3442
6597
3414
4153
8163
6147
6062
2167
5135
3924
5615
6868
9272
1856
8160
5915
8764
3187
6724
6820
3644
4098
541
7450
1362
7036
7870
8510
1942
3241
417
3338
4761
693
7996
610
8027
3054
8820
3761
7663
5690
2700
570
2824
4166
5840
7784
2462
